45
raw_data/rcpsp/CV.xlsx cv45
Time limit set to 60 seconds
Running CP solver
/home/omastto1/General-Optimization-Solver/src/solvers/rcpsp.py:31(stream:43:6): Warning: Cumulative expression 'pulse': height is zero, expression is zero everywhere.
                                                                                            VarCumulAtom_82 = pulse("0", 0)
/home/omastto1/General-Optimization-Solver/src/solvers/rcpsp.py:31(stream:43:382): Warning: Cumulative expression 'pulse': height is zero, expression is zero everywhere.
                                                                                              VarCumulAtom_106 = pulse("24", 0)
/home/omastto1/General-Optimization-Solver/src/solvers/rcpsp.py:31(stream:44:6): Warning: Cumulative expression 'pulse': height is zero, expression is zero everywhere.
                                                                                            VarCumulAtom_110 = pulse("0", 0)
/home/omastto1/General-Optimization-Solver/src/solvers/rcpsp.py:31(stream:44:382): Warning: Cumulative expression 'pulse': height is zero, expression is zero everywhere.
                                                                                              VarCumulAtom_134 = pulse("24", 0)
/home/omastto1/General-Optimization-Solver/src/solvers/rcpsp.py:31(stream:45:6): Warning: Cumulative expression 'pulse': height is zero, expression is zero everywhere.
                                                                                            VarCumulAtom_138 = pulse("0", 0)
/home/omastto1/General-Optimization-Solver/src/solvers/rcpsp.py:31(stream:45:382): Warning: Cumulative expression 'pulse': height is zero, expression is zero everywhere.
                                                                                              VarCumulAtom_162 = pulse("24", 0)
 ! --------------------------------------------------- CP Optimizer 20.1.0.0 --
 ! Minimization problem - 26 variables, 48 constraints
 ! TimeLimit            = 60
 ! Workers              = 14
 ! LogVerbosity         = Terse
 ! Initial process time : 0.00s (0.00s extraction + 0.00s propagation)
 !  . Log search space  : 136.0 (before), 136.0 (after)
 !  . Memory usage      : 583.3 kB (before), 583.3 kB (after)
 ! Using parallel search with 14 workers.
 ! ----------------------------------------------------------------------------
 !          Best Branches  Non-fixed    W       Branch decision
                        0         26                 -
 + New bound is 13
 ! Using iterative diving.
 ! Using temporal relaxation.
 *            46       53  1.10s        1      (gap is 71.74%)
 *            42      105  1.10s        1      (gap is 69.05%)
 *            40     2150  1.10s        1      (gap is 67.50%)
              40     6680          4    1            -
 + New bound is 36 (gap is 10.00%)
 ! Using failure-directed search.
 *            39     8782  1.10s        4      (gap is 7.69%)
 *            38     8931  1.10s        4      (gap is 5.26%)
 *            37     157k  11.05s      13      (gap is 2.70%)
 ! ----------------------------------------------------------------------------
 ! Search terminated by limit, 6 solutions found.
 ! Best objective         : 37 (gap is 2.70%)
 ! Best bound             : 36
 ! ----------------------------------------------------------------------------
 ! Number of branches     : 8004949
 ! Number of fails        : 2413225
 ! Total memory usage     : 11.1 MB (11.0 MB CP Optimizer + 0.1 MB Concert)
 ! Time spent in solve    : 60.04s (60.04s engine + 0.00s extraction)
 ! Search speed (br. / s) : 133349.1
 ! ----------------------------------------------------------------------------
(36,)
(0.027027,)
(37,)
Objective value: 37
Solution is 2.8 % worse than the lower bound.
Feasible solution found
